92 33 30 28 26 32 93 
90 
42 44 41 43 68 
82 52 99 86 57 66 
95 62 84 56 
45 5 3 1 70 
27 29 31 34 50 80 
61 81 54 96 
71 67 94 
65 83 23 21 18 48 25 
64 19 49 22 20 24 
2 7 6 8 46 4 100 
12 11 9 87 74 
69 98 88 53 55 
72 39 36 40 38 35 37 
63 76 51 85 89 91 
14 47 16 15 10 13 17 
73 79 78 60 
59 75 97 58 77 
